
  15    0


   0   8 2 3 4 5 11 12 13 14 
   1   2 10 9 
   2   2 7 6 
   9   2 7 6 
   3   1 8 
   6   1 15
   3   1 15
   6   1 15
   9   1 15
   5   1 15
   1   1 15
   5   1 15
   2   1 15
  10   1 15
   0   0 
